multiobj/instances/reallike/Ter-rl-5-2--0.80-0.5-1.in
5 2
0 123 17 72 89 
123 0 116 51 121 
17 116 0 64 101 
72 51 64 0 97 
89 121 101 97 0 
0 15 2478 5 1544 
15 0 416 79 0 
2478 416 0 0 0 
5 79 0 0 0 
1544 0 0 0 0 
0 2 0 0 0 
2 0 0 0 5 
0 0 0 32267 35774 
0 0 32267 0 65 
0 5 35774 65 0 
