multiobj/solutions/reallike/Ter-rl-5-2--0.80-0.5-1.out
9 2
2 4 0 1 3 
379240 13097142 
2 1 0 4 3 
407828 10908566 
2 4 3 1 0 
473692 8459974 
0 4 3 1 2 
513050 7886752 
3 1 2 4 0 
657650 7747254 
3 1 0 2 4 
779202 7479394 
1 4 2 0 3 
835338 5686964 
4 1 2 3 0 
884558 5357566 
1 4 2 3 0 
1058218 5357226 
